NAME = SAfile175,
TOURSIZE = 175,
LENGTH = 21420,
144,80,172,32,157,44,108,75,161,136,97,82,47,37,38,113,74,7,87,154,166,68,29,133,116,45,9,15,25,139,62,83,6,42,146,16,35,163,117,67,98,79,156,61,131,101,127,13,73,1,27,40,129,55,106,51,107,12,121,22,165,126,164,33,18,122,10,77,66,128,59,11,173,24,70,149,85,84,151,104,112,81,71,91,134,41,21,36,132,99,140,153,143,130,34,78,162,174,4,109,20,43,115,138,52,96,145,63,95,54,141,152,88,135,94,158,90,111,76,86,56,30,3,142,60,175,124,8,125,155,57,14,150,147,169,28,168,23,65,100,160,58,2,137,17,110,119,171,46,89,148,49,118,72,26,5,39,120,19,93,69,31,114,48,92,170,53,64,159,105,50,103,167,123,102